c Random generated cnf formula, satisfiable: false
p cnf 10 50
-2 6 -1 0
-1 4 2 0
-3 8 10 0
-8 9 -1 0
5 3 7 0
9 -10 -2 0
9 6 -5 0
-3 6 10 0
-8 4 7 0
5 -8 -4 0
9 -5 3 0
-3 2 4 0
-2 -10 -4 0
-7 -5 6 0
1 8 -4 0
8 9 6 0
5 -6 -4 0
-7 4 -5 0
-7 3 9 0
-8 -5 2 0
9 3 -10 0
-6 -3 -2 0
8 6 1 0
-5 -10 -8 0
7 -8 9 0
-4 -6 -9 0
10 -2 -5 0
8 -2 5 0
-4 -9 -5 0
8 -6 4 0
7 2 -3 0
2 -5 -6 0
2 1 -7 0
10 3 7 0
3 6 -7 0
-2 -10 -5 0
-6 -7 -1 0
3 8 -10 0
-1 6 -2 0
-5 3 -7 0
-9 -7 -10 0
-7 -3 -8 0
-7 -4 -9 0
4 -6 10 0
-6 -3 4 0
-4 1 10 0
-9 1 -4 0
-5 7 -6 0
6 9 -4 0
6 -10 -1 0
